(declare-const in0 Int)
(declare-const in2 Int)
(declare-const in1 Int)
(declare-const in4 Int)
(declare-const in3 Int)
(declare-const in6 Int)
(declare-const in5 Int)
(declare-const in20 Int)
(declare-const in8 Int)
(declare-const in7 Int)
(declare-const in11 Int)
(declare-const in21 Int)
(declare-const in10 Int)
(declare-const in9 Int)
(declare-const in13 Int)
(declare-const in12 Int)
(declare-const in15 Int)
(declare-const in14 Int)
(declare-const in17 Int)
(declare-const in16 Int)
(declare-const in19 Int)
(declare-const in18 Int)

(assert (and (and (and (and (and (and (and (and (and (and (and (and (and (and (and (and (and (and (and (and (and  ( ==  in0 120)  ( ==  in1 120))  ( ==  in2 120))  ( ==  in3 120))  ( ==  in4 120))  ( ==  in5 120))  ( ==  in6 120))  ( ==  in7 120))  ( ==  in8 120))  ( ==  in9 120))  ( ==  in10 120))  ( ==  in11 120))  ( ==  in12 120))  ( ==  in13 120))  ( ==  in14 120))  ( ==  in15 120))  ( ==  in16 120))  ( ==  in17 120))  ( ==  in18 120))  ( ==  in19 120))  ( ==  in20 120))  ( ==  in21 120)))

(check-sat)
(get-model)